p edge 807 757
e 1 2
e 1 3
e 1 4
e 1 5
e 1 6
e 1 7
e 1 8
e 1 9
e 1 10
e 1 11
e 1 12
e 1 13
e 1 14
e 15 16
e 15 17
e 15 18
e 15 19
e 15 20
e 15 21
e 15 22
e 15 23
e 15 24
e 15 25
e 15 26
e 15 27
e 15 28
e 15 29
e 15 30
e 15 31
e 15 32
e 33 34
e 33 35
e 33 36
e 33 37
e 33 38
e 33 39
e 33 40
e 33 41
e 33 42
e 33 43
e 33 44
e 33 45
e 46 47
e 46 48
e 46 49
e 46 50
e 46 51
e 46 52
e 46 53
e 46 54
e 46 55
e 46 56
e 46 57
e 46 58
e 59 60
e 59 61
e 59 62
e 59 63
e 59 64
e 59 65
e 59 66
e 59 67
e 59 68
e 59 69
e 59 70
e 59 71
e 59 72
e 59 73
e 59 74
e 59 75
e 59 76
e 59 77
e 78 79
e 78 80
e 78 81
e 78 82
e 78 83
e 78 84
e 78 85
e 78 86
e 78 87
e 78 88
e 78 89
e 78 90
e 78 91
e 78 92
e 78 93
e 78 94
e 78 95
e 78 96
e 78 97
e 78 98
e 99 100
e 99 101
e 99 102
e 99 103
e 99 104
e 99 105
e 99 106
e 99 107
e 99 108
e 99 109
e 99 110
e 99 111
e 99 112
e 99 113
e 99 114
e 99 115
e 99 116
e 99 117
e 99 118
e 119 120
e 119 121
e 119 122
e 119 123
e 119 124
e 119 125
e 119 126
e 119 127
e 119 128
e 119 129
e 119 130
e 119 131
e 119 132
e 133 134
e 133 135
e 133 136
e 133 137
e 133 138
e 133 139
e 133 140
e 133 141
e 133 142
e 133 143
e 133 144
e 133 145
e 133 146
e 147 148
e 147 149
e 147 150
e 147 151
e 147 152
e 147 153
e 147 154
e 147 155
e 147 156
e 147 157
e 147 158
e 159 160
e 159 161
e 159 162
e 159 163
e 159 164
e 159 165
e 159 166
e 159 167
e 159 168
e 159 169
e 159 170
e 171 172
e 171 173
e 171 174
e 171 175
e 171 176
e 171 177
e 171 178
e 171 179
e 171 180
e 171 181
e 171 182
e 171 183
e 171 184
e 171 185
e 171 186
e 171 187
e 171 188
e 171 189
e 171 190
e 191 192
e 191 193
e 191 194
e 191 195
e 191 196
e 191 197
e 191 198
e 191 199
e 191 200
e 191 201
e 191 202
e 191 203
e 191 204
e 191 205
e 191 206
e 191 207
e 191 208
e 209 210
e 209 211
e 209 212
e 209 213
e 209 214
e 209 215
e 209 216
e 209 217
e 209 218
e 209 219
e 209 220
e 209 221
e 209 222
e 209 223
e 209 224
e 209 225
e 209 226
e 227 228
e 227 229
e 227 230
e 227 231
e 227 232
e 227 233
e 227 234
e 227 235
e 227 236
e 227 237
e 238 239
e 238 240
e 238 241
e 238 242
e 238 243
e 238 244
e 238 245
e 238 246
e 238 247
e 238 248
e 238 249
e 238 250
e 238 251
e 238 252
e 238 253
e 238 254
e 238 255
e 238 256
e 238 257
e 258 259
e 258 260
e 258 261
e 258 262
e 258 263
e 258 264
e 258 265
e 258 266
e 258 267
e 258 268
e 258 269
e 258 270
e 258 271
e 272 273
e 272 274
e 272 275
e 272 276
e 272 277
e 272 278
e 272 279
e 272 280
e 272 281
e 272 282
e 283 284
e 283 285
e 283 286
e 283 287
e 283 288
e 283 289
e 283 290
e 283 291
e 283 292
e 283 293
e 283 294
e 283 295
e 283 296
e 283 297
e 283 298
e 299 300
e 299 301
e 299 302
e 299 303
e 299 304
e 299 305
e 299 306
e 299 307
e 299 308
e 299 309
e 299 310
e 299 311
e 299 312
e 299 313
e 299 314
e 299 315
e 299 316
e 299 317
e 299 318
e 299 319
e 320 321
e 320 322
e 320 323
e 320 324
e 320 325
e 320 326
e 320 327
e 320 328
e 320 329
e 320 330
e 320 331
e 320 332
e 320 333
e 320 334
e 335 336
e 335 337
e 335 338
e 335 339
e 335 340
e 335 341
e 335 342
e 335 343
e 335 344
e 335 345
e 335 346
e 335 347
e 335 348
e 335 349
e 335 350
e 335 351
e 335 352
e 335 353
e 335 354
e 355 356
e 355 357
e 355 358
e 355 359
e 355 360
e 355 361
e 355 362
e 355 363
e 355 364
e 355 365
e 355 366
e 355 367
e 355 368
e 355 369
e 355 370
e 355 371
e 355 372
e 373 374
e 373 375
e 373 376
e 373 377
e 373 378
e 373 379
e 373 380
e 373 381
e 373 382
e 373 383
e 384 385
e 384 386
e 384 387
e 384 388
e 384 389
e 384 390
e 384 391
e 384 392
e 384 393
e 384 394
e 384 395
e 384 396
e 397 398
e 397 399
e 397 400
e 397 401
e 397 402
e 397 403
e 397 404
e 397 405
e 397 406
e 397 407
e 397 408
e 397 409
e 397 410
e 397 411
e 397 412
e 413 414
e 413 415
e 413 416
e 413 417
e 413 418
e 413 419
e 413 420
e 413 421
e 413 422
e 413 423
e 413 424
e 413 425
e 413 426
e 413 427
e 413 428
e 413 429
e 413 430
e 413 431
e 432 433
e 432 434
e 432 435
e 432 436
e 432 437
e 432 438
e 432 439
e 432 440
e 432 441
e 432 442
e 443 444
e 443 445
e 443 446
e 443 447
e 443 448
e 443 449
e 443 450
e 443 451
e 443 452
e 443 453
e 443 454
e 455 456
e 455 457
e 455 458
e 455 459
e 455 460
e 455 461
e 455 462
e 455 463
e 455 464
e 455 465
e 455 466
e 455 467
e 455 468
e 455 469
e 455 470
e 471 472
e 471 473
e 471 474
e 471 475
e 471 476
e 471 477
e 471 478
e 471 479
e 471 480
e 471 481
e 471 482
e 471 483
e 471 484
e 471 485
e 486 487
e 486 488
e 486 489
e 486 490
e 486 491
e 486 492
e 486 493
e 486 494
e 486 495
e 486 496
e 486 497
e 486 498
e 486 499
e 486 500
e 486 501
e 486 502
e 486 503
e 486 504
e 486 505
e 486 506
e 507 508
e 507 509
e 507 510
e 507 511
e 507 512
e 507 513
e 507 514
e 507 515
e 507 516
e 507 517
e 507 518
e 507 519
e 507 520
e 507 521
e 522 523
e 522 524
e 522 525
e 522 526
e 522 527
e 522 528
e 522 529
e 522 530
e 522 531
e 522 532
e 522 533
e 522 534
e 522 535
e 522 536
e 522 537
e 538 539
e 538 540
e 538 541
e 538 542
e 538 543
e 538 544
e 538 545
e 538 546
e 538 547
e 538 548
e 538 549
e 538 550
e 538 551
e 538 552
e 538 553
e 538 554
e 538 555
e 556 557
e 556 558
e 556 559
e 556 560
e 556 561
e 556 562
e 556 563
e 556 564
e 556 565
e 556 566
e 556 567
e 556 568
e 556 569
e 556 570
e 571 572
e 571 573
e 571 574
e 571 575
e 571 576
e 571 577
e 571 578
e 571 579
e 571 580
e 571 581
e 571 582
e 571 583
e 571 584
e 571 585
e 586 587
e 586 588
e 586 589
e 586 590
e 586 591
e 586 592
e 586 593
e 586 594
e 586 595
e 586 596
e 586 597
e 586 598
e 586 599
e 586 600
e 586 601
e 586 602
e 586 603
e 586 604
e 586 605
e 606 607
e 606 608
e 606 609
e 606 610
e 606 611
e 606 612
e 606 613
e 606 614
e 606 615
e 606 616
e 606 617
e 606 618
e 606 619
e 606 620
e 621 622
e 621 623
e 621 624
e 621 625
e 621 626
e 621 627
e 621 628
e 621 629
e 621 630
e 621 631
e 621 632
e 621 633
e 621 634
e 621 635
e 621 636
e 621 637
e 621 638
e 621 639
e 640 641
e 640 642
e 640 643
e 640 644
e 640 645
e 640 646
e 640 647
e 640 648
e 640 649
e 640 650
e 640 651
e 640 652
e 640 653
e 640 654
e 640 655
e 640 656
e 657 658
e 657 659
e 657 660
e 657 661
e 657 662
e 657 663
e 657 664
e 657 665
e 657 666
e 657 667
e 657 668
e 669 670
e 669 671
e 669 672
e 669 673
e 669 674
e 669 675
e 669 676
e 669 677
e 669 678
e 669 679
e 669 680
e 669 681
e 669 682
e 669 683
e 684 685
e 684 686
e 684 687
e 684 688
e 684 689
e 684 690
e 684 691
e 684 692
e 684 693
e 684 694
e 684 695
e 684 696
e 684 697
e 684 698
e 684 699
e 684 700
e 684 701
e 684 702
e 684 703
e 684 704
e 705 706
e 705 707
e 705 708
e 705 709
e 705 710
e 705 711
e 705 712
e 705 713
e 705 714
e 705 715
e 705 716
e 705 717
e 705 718
e 705 719
e 705 720
e 705 721
e 722 723
e 722 724
e 722 725
e 722 726
e 722 727
e 722 728
e 722 729
e 722 730
e 722 731
e 722 732
e 722 733
e 722 734
e 722 735
e 722 736
e 722 737
e 722 738
e 722 739
e 740 741
e 740 742
e 740 743
e 740 744
e 740 745
e 740 746
e 740 747
e 740 748
e 740 749
e 740 750
e 740 751
e 740 752
e 740 753
e 740 754
e 740 755
e 740 756
e 740 757
e 740 758
e 740 759
e 760 761
e 760 762
e 760 763
e 760 764
e 760 765
e 760 766
e 760 767
e 760 768
e 760 769
e 760 770
e 760 771
e 760 772
e 760 773
e 760 774
e 760 775
e 760 776
e 760 777
e 760 778
e 779 780
e 779 781
e 779 782
e 779 783
e 779 784
e 779 785
e 779 786
e 779 787
e 779 788
e 779 789
e 790 791
e 790 792
e 790 793
e 790 794
e 790 795
e 790 796
e 790 797
e 790 798
e 790 799
e 790 800
e 790 801
e 790 802
e 790 803
e 790 804
e 790 805
e 790 806
e 790 807
